Traveling Salesman Problem/TSP_generados/Aleatorio1620390869_6.tsp
NAME: Aleatorio1620390869_6.tsp
COMMENT: Randomly generated scenario
TYPE: TSP
DIMENSION: 6
EDGE_WEIGHT_TYPE: ATT
NODE_COORD_SECTION
1 1.91 16.39
2 40.04 17.86
3 3.51 18.04
4 48.17 23.65
5 17.49 2.66
6 42.97 22.77
