Traveling Salesman Problem/TSP_generados/Aleatorio1620390869_6.opt.tour
NAME: Aleatorio1620390869_6.opt.tour
COMMENT: Optimal solution for Aleatorio1620390869_6 (105.25688768828655)
TYPE: TOUR
DIMENSION: 6
TOUR_SECTION
1 5 2 4 6 3
-1
EOF
